42
25
4
5 2
12 3
3 4
20 0
10 4
5 3
10 3
24 1
4 0
21 0
14 0
19 2
21 1
12 2
9 0
10 1
3 0
11 3
25 1
2 4
12 0
16 4
24 2
13 3
10 2
20 0
20 2
24 0
25 1
6 4
3 2
1 0
22 4
12 1
21 2
3 3
21 4
8 1
14 4
16 2
3 1
25 4
